n_machines = 5;
n_resources = 8;
n_jobs = 40;
horizon = 24329;
LB = 4865;
n_jobs_per_resource = [5, 5, 5, 5, 5, 5, 5, 5];
duration = [812, 330, 296, 57, 729, 176, 944, 275, 756, 400, 202, 190, 797, 795, 398, 774, 998, 68, 948, 521, 499, 565, 425, 854, 814, 813, 727, 998, 967, 635, 930, 585, 816, 626, 671, 873, 590, 313, 703, 459]